Argumentos: 
./solver.release -i 24 -t 86400 -a 7 -h 86400 -w Testes/R1-i24 -m R1_modeloCom2345.mod -o R1_modeloCom2345.mod 
Seed: 1623016528
hidden-TXT/Sc-n110w4.txt
hidden-TXT/H0-n110w4-1.txt
hidden-TXT/WD-n110w4-0.txt hidden-TXT/WD-n110w4-5.txt hidden-TXT/WD-n110w4-8.txt hidden-TXT/WD-n110w4-8.txt 
Reading model section from R1_modeloCom2345.mod...
367 lines were read
Reading data section from Testes/R1-i24/24.dat...
19773 lines were read
Generating obj...
Generating H1turnoDia...
Generating H2coberturaMinima...
Generating H3AsucessaoTurnos...
Generating H3BsucessaoTurnos...
Generating H4qualificacao...
Generating S1coberturaOtima...
Generating auxS5...
Generating S6a...
Generating S6b...
Generating auxS7...
Generating S7...
Model has been successfully generated
Writing problem data to `Testes/R1-i24/24.lp'...
380427 lines were written
CPX0000  Tried aggregator 2 times.
CPX0000  MIP Presolve eliminated 21894 rows and 91789 columns.
CPX0000  MIP Presolve modified 5930 coefficients.
CPX0000  Aggregator did 6 substitutions.
CPX0000  Reduced MIP has 10504 rows, 21032 columns, and 119647 nonzeros.
CPX0000  Reduced MIP has 20401 binaries, 631 generals, 0 SOSs, and 0 indicators.
CPX0000  Presolve time = 0.25 sec. (161.45 ticks)
CPX0000  Found incumbent of value 366310.000000 after 0.54 sec. (327.97 ticks)
[1m[30m[ZEN] [0m00:00:00 [1m[34m 366310.00[1m[32m  100.00%
[0mCPX0000  Probing time = 0.02 sec. (6.91 ticks)
CPX0000  Tried aggregator 1 time.
CPX0000  Reduced MIP has 10504 rows, 21032 columns, and 119647 nonzeros.
CPX0000  Reduced MIP has 20401 binaries, 631 generals, 0 SOSs, and 0 indicators.
CPX0000  Presolve time = 0.06 sec. (47.43 ticks)
CPX0000  Probing time = 0.02 sec. (6.32 ticks)
CPX0000  Clique table members: 14924.
CPX0000  MIP emphasis: balance optimality and feasibility.
CPX0000  MIP search method: dynamic search.
CPX0000  Parallel mode: none, using 1 thread.
CPX0000  Root relaxation solution time = 1.17 sec. (757.42 ticks)
CPX0000
CPX0000          Nodes                                         Cuts/
CPX0000     Node  Left     Objective  IInf  Best Integer    Best Bound    ItCnt     Gap
CPX0000
CPX0000  *     0+    0                       366310.0000        0.0000     7653  100.00%
CPX0000        0     0      670.0000   770   366310.0000      670.0000     7653   99.82%
CPX0000  *     0+    0                         6360.0000      670.0000     7653   89.47%
[1m[30m[ZEN] [0m00:00:01 [1m[34m   6360.00[1m[32m   89.47%
[0mCPX0000        0     0      670.0000   420     6360.0000     Cuts: 600     9087   89.47%
CPX0000        0     0      670.0000   568     6360.0000     Cuts: 458    10372   89.47%
CPX0000        0     0      670.0000   119     6360.0000      Cuts: 38    10811   89.47%
CPX0000  *     0+    0                         1370.0000      670.0000    10811   51.09%
[1m[30m[ZEN] [0m00:00:05 [1m[34m   1370.00[1m[32m   51.09%
[0mCPX0000  *     0+    0                         1210.0000      670.0000    10811   44.63%
CPX0000  *     0+    0                         1190.0000      670.0000    10811   43.70%
CPX0000  *     0+    0                         1090.0000      670.0000    10811   38.53%
CPX0000  *     0+    0                         1040.0000      670.0000    10811   35.58%
[1m[30m[ZEN] [0m00:00:05 [1m[34m   1040.00[1m[32m   35.58%
[0mCPX0000        0     0      670.0000   200     1040.0000     Cuts: 165    11531   35.58%
CPX0000  *     0+    0                          900.0000      670.0000    11531   25.56%
CPX0000  *     0+    0                          860.0000      670.0000    11531   22.09%
[1m[30m[ZEN] [0m00:00:07 [1m[34m    860.00[1m[32m   22.09%
[0mCPX0000        0     2      670.0000     9      860.0000      670.0000    11531   22.09%
CPX0000  Elapsed time = 7.53 sec. (4977.55 ticks, tree = 0.00 MB
CPX0000       16    18      670.0000    50      860.0000      670.0000    13513   22.09%
CPX0000       20    22      670.0000    23      860.0000      670.0000    13790   22.09%
CPX0000       36    38      670.0000    25      860.0000      670.0000    15314   22.09%
CPX0000       60    62      670.0000    19      860.0000      670.0000    16288   22.09%
CPX0000       80    82      670.0000    12      860.0000      670.0000    17659   22.09%
CPX0000      100   102      670.0000    93      860.0000      670.0000    18953   22.09%
CPX0000  *   130+  130                          720.0000      670.0000    20206    6.94%
CPX0000  *   130+  130                          710.0000      670.0000    20206    5.63%
CPX0000      130   132      670.0000     3      710.0000      670.0000    20206    5.63%
[1m[30m[ZEN] [0m00:00:10 [1m[34m    710.00[1m[32m    5.63%
[0mCPX0000  *   140+  140                          690.0000      670.0000    20755    2.90%
[1m[30m[ZEN] [0m00:00:10 [1m[34m    690.00[1m[32m    2.90%
[0mCPX0000  *   143     0      integral     0      670.0000      670.0000    20800    0.00%
[1m[30m[ZEN] [0m00:00:10 [1m[34m    670.00[1m[32m    0.00%
[0mCPX0000
CPX0000  GUB cover cuts applied:  333
CPX0000  Clique cuts applied:  279
CPX0000  Cover cuts applied:  1
CPX0000  Mixed integer rounding cuts applied:  142
CPX0000  Zero-half cuts applied:  196
CPX0000  Gomory fractional cuts applied:  21
CPX0000
CPX0000  Root node processing (before b&c):
CPX0000    Real time             =    7.50 sec. (4951.78 ticks)
CPX0000  Sequential b&c:
CPX0000    Real time             =    3.49 sec. (2232.57 ticks)
CPX0000                            ------------
CPX0000  Total (root+branch&cut) =   10.99 sec. (7184.35 ticks)
H2 understaffing: 0
H3 shiftTypeSuccessions: 0
S1 optimalCoverage: 0
S2a consecutiveShift: 17790 = (1173,13 )
S2b consecutiveWorkingDays: 31260 = ( 874,168 )
S3 consecutiveDaysOff: 18960 = ( 557,75 )
S4 preferences: 10
S5 completeWeekend: 0
S6 totalAssignments: 660
S7 totalWorkingWeekeends: 0
 

Cost Solution: 68680

       |M|T|W|T|F|S|S| |M|T|W|T|F|S|S| |M|T|W|T|F|S|S| |M|T|W|T|F|S|S|
------------------------------------------------------------------------
HN_0   |L|-|E|E|-|-|-| |E|-|L|-|E|E|N| |N|-|L|L|-|D|E| |-|-|D|-|N|-|-|
HN_1   |-|-|-|E|-|-|-| |D|-|-|E|N|-|-| |-|L|-|-|-|L|-| |-|-|-|N|N|-|-|
HN_2   |-|E|D|-|L|-|D| |N|-|-|-|L|-|-| |E|D|-|-|-|-|-| |-|-|L|-|N|-|-|
HN_3   |N|N|N|N|N|-|-| |-|E|E|D|D|D|D| |-|E|E|E|N|-|-| |E|D|D|E|D|E|L|
HN_4   |-|L|-|D|-|-|-| |D|-|-|-|-|-|-| |D|L|L|L|-|-|-| |N|-|-|-|D|L|N|
HN_5   |-|-|-|-|N|-|-| |L|N|-|-|-|-|-| |E|N|N|-|L|-|-| |D|D|L|-|N|-|-|
HN_6   |N|N|-|L|-|E|D| |E|D|-|-|L|-|-| |-|D|-|-|D|E|L| |-|E|E|D|-|-|-|
HN_7   |-|N|-|L|-|-|-| |-|-|N|N|-|E|E| |-|N|-|D|E|-|-| |L|-|E|E|E|E|L|
HN_8   |D|D|D|E|D|N|N| |-|E|-|L|N|-|-| |N|-|-|E|D|-|-| |-|D|-|-|D|-|-|
HN_9   |D|-|L|-|D|-|-| |-|-|-|-|-|-|-| |-|E|-|E|E|D|L| |N|N|N|-|-|-|-|
HN_10  |D|-|L|L|L|-|-| |-|N|-|-|E|D|D| |-|-|-|D|L|-|-| |L|N|-|D|-|D|E|
HN_11  |N|-|N|-|E|-|-| |-|-|-|-|-|-|-| |-|-|-|-|N|-|-| |-|N|-|-|-|-|-|
HN_12  |E|D|L|-|-|-|-| |D|D|-|N|N|-|-| |E|-|D|-|-|-|-| |-|E|E|-|-|-|-|
HN_13  |L|-|E|N|-|L|N| |-|E|N|N|-|-|-| |E|-|L|L|L|-|-| |N|-|L|-|L|-|-|
HN_14  |-|L|-|-|-|-|-| |N|N|-|N|-|L|L| |-|-|L|-|E|-|-| |L|-|-|L|L|-|-|
HN_15  |N|N|N|N|-|N|N| |-|E|-|D|-|-|-| |D|D|-|D|D|D|N| |-|-|-|N|-|-|-|
HN_16  |D|E|E|E|D|E|E| |E|D|L|L|L|-|-| |N|N|N|N|-|E|D| |E|L|-|E|E|-|-|
HN_17  |E|-|-|N|-|-|-| |-|-|D|-|L|N|N| |N|-|E|-|L|-|-| |-|-|-|N|N|-|-|
HN_18  |-|E|D|E|D|-|-| |D|D|E|D|E|L|L| |L|L|N|N|N|-|-| |L|L|L|N|-|D|D|
HN_19  |-|-|-|D|E|-|-| |L|-|D|-|L|N|N| |-|D|E|D|N|-|-| |D|D|-|L|L|-|-|
NU_20  |-|E|-|-|N|-|-| |-|N|-|-|D|-|-| |L|-|L|-|D|-|-| |D|-|-|D|D|D|E|
NU_21  |L|L|L|L|L|-|-| |D|E|D|E|E|D|D| |D|D|E|L|-|E|L| |L|L|-|L|L|-|-|
NU_22  |E|E|L|L|L|-|-| |E|D|E|D|E|D|E| |D|D|D|L|-|-|-| |E|D|N|N|-|E|L|
NU_23  |-|L|-|D|-|D|E| |-|L|-|L|-|-|-| |L|-|E|-|E|-|-| |N|-|-|N|-|-|-|
NU_24  |L|L|-|-|L|-|-| |N|-|-|-|-|E|E| |-|-|L|-|D|-|-| |L|-|N|N|-|-|-|
NU_25  |-|-|L|-|-|L|L| |N|-|D|-|E|-|-| |-|L|-|E|-|-|-| |-|N|N|-|L|-|-|
NU_26  |-|-|L|N|-|-|-| |-|-|-|-|E|-|-| |-|-|-|-|-|N|-| |-|L|-|-|-|-|-|
NU_27  |-|-|-|D|-|-|-| |-|-|-|-|D|N|N| |-|N|-|L|-|-|-| |-|-|-|-|-|-|-|
NU_28  |N|-|D|-|-|-|-| |-|-|D|D|-|L|L| |L|L|L|-|L|-|-| |-|E|-|E|-|-|-|
NU_29  |-|D|E|E|E|-|-| |L|N|-|L|-|-|-| |-|-|D|D|-|-|-| |E|D|D|L|-|L|L|
NU_30  |E|L|-|L|-|-|-| |-|L|L|-|-|-|-| |-|-|N|N|-|-|-| |E|E|D|-|-|N|N|
NU_31  |E|L|-|-|E|-|-| |L|L|-|E|N|-|-| |-|-|-|E|-|-|-| |-|-|-|-|E|E|L|
NU_32  |-|L|L|L|N|N|N| |N|-|N|N|N|-|-| |E|D|D|E|L|-|-| |E|E|D|D|D|E|D|
NU_33  |L|L|-|D|E|D|D| |E|E|E|E|D|-|-| |D|E|E|D|E|L|L| |-|L|L|N|N|-|-|
NU_34  |-|-|-|-|-|-|E| |-|-|N|-|-|-|-| |D|-|-|-|-|-|-| |D|-|-|-|N|-|-|
NU_35  |E|-|L|L|-|L|L| |-|-|E|-|N|-|-| |-|-|D|N|N|-|-| |E|-|-|E|D|E|D|
NU_36  |N|-|-|-|-|-|-| |D|L|L|-|L|-|-| |L|-|N|-|L|-|-| |-|E|D|-|E|-|-|
NU_37  |-|-|-|-|L|-|-| |-|L|L|L|-|-|-| |L|-|E|L|-|E|N| |N|-|L|-|E|-|-|
NU_38  |-|D|E|D|D|E|D| |D|D|D|L|-|E|E| |E|D|L|N|N|-|-| |E|E|E|D|L|-|-|
NU_39  |-|D|E|-|L|L|L| |L|N|-|D|L|-|-| |-|-|D|E|D|-|-| |N|-|-|D|D|-|-|
CT_40  |D|E|-|-|E|-|-| |-|-|-|-|-|-|-| |N|-|-|-|-|-|-| |-|-|-|-|-|E|-|
CT_41  |-|-|-|-|-|L|-| |-|-|-|-|E|-|-| |L|-|-|L|-|-|-| |-|D|D|-|-|-|-|
CT_42  |L|L|N|-|L|N|N| |-|E|E|E|D|D|D| |D|D|E|L|L|-|-| |E|L|L|N|N|-|-|
CT_43  |-|L|-|-|-|-|E| |-|L|-|-|-|-|-| |-|E|-|-|D|-|-| |-|-|N|-|-|-|-|
CT_44  |-|N|-|N|N|-|-| |-|-|-|L|L|-|-| |-|L|-|D|E|-|-| |-|-|-|-|E|E|E|
CT_45  |-|D|E|E|E|D|E| |N|-|-|N|-|-|-| |N|-|E|-|N|-|-| |E|E|N|-|D|-|-|
CT_46  |L|-|-|-|L|-|-| |-|-|-|D|-|-|-| |-|E|-|-|D|-|-| |N|-|D|L|L|N|N|
CT_47  |D|D|D|E|L|L|N| |-|E|D|D|L|-|-| |E|D|D|D|D|E|D| |L|N|-|E|D|-|-|
CT_48  |N|-|-|L|L|-|-| |N|-|-|L|L|-|-| |L|-|-|E|-|-|-| |L|N|-|E|-|L|N|
CT_49  |D|D|E|E|E|-|-| |L|L|L|N|N|-|-| |L|L|L|N|N|-|-| |D|D|E|E|E|L|L|
CT_50  |D|-|L|-|L|-|-| |N|N|N|N|-|N|N| |N|-|-|N|-|L|L| |-|D|-|D|D|-|-|
CT_51  |D|D|-|-|E|-|-| |-|D|L|N|-|-|-| |L|-|-|N|-|-|-| |E|-|N|-|E|-|-|
CT_52  |E|L|-|D|E|-|-| |D|D|L|N|-|L|L| |-|L|-|-|-|-|-| |-|D|-|D|E|D|D|
CT_53  |-|-|-|D|-|-|-| |D|D|D|N|-|-|-| |-|E|L|L|-|E|E| |-|-|-|E|N|-|-|
CT_54  |N|N|N|N|N|N|N| |-|D|N|N|-|E|D| |N|N|N|N|N|-|-| |L|L|L|N|N|-|-|
CT_55  |-|-|D|-|-|-|E| |D|-|-|E|-|-|-| |-|-|-|-|-|-|-| |-|N|-|-|-|-|-|
CT_56  |-|-|-|-|-|-|D| |-|D|L|-|-|-|-| |-|-|L|-|L|-|-| |-|-|-|-|-|-|-|
CT_57  |-|-|D|-|-|-|-| |D|D|N|-|D|E|D| |-|-|-|N|N|-|-| |N|-|-|L|-|-|-|
CT_58  |L|-|-|D|D|-|-| |D|L|L|-|N|-|-| |E|L|-|-|L|-|-| |-|L|L|-|-|L|-|
CT_59  |-|D|D|L|-|L|L| |L|-|L|-|-|-|-| |-|N|-|L|-|N|N| |-|D|D|L|N|-|-|
CT_60  |L|-|D|-|-|-|-| |-|D|N|N|-|-|-| |E|E|-|-|-|E|L| |L|-|-|L|-|-|-|
CT_61  |-|-|-|-|-|-|-| |-|L|N|-|-|-|-| |-|-|-|-|D|-|-| |N|-|L|-|-|N|-|
CT_62  |E|E|E|E|E|D|D| |E|E|N|-|N|-|-| |D|E|D|D|-|D|D| |D|E|L|L|L|-|-|
CT_63  |N|-|-|D|N|-|-| |-|N|-|-|D|N|N| |-|-|L|-|E|D|E| |D|-|D|L|L|-|-|
CT_64  |N|-|N|N|-|-|-| |D|-|E|D|E|-|-| |-|E|-|-|-|N|N| |-|-|-|E|-|-|-|
CT_65  |E|D|D|L|-|E|L| |L|L|L|L|-|-|-| |N|N|N|N|N|-|-| |D|L|N|N|N|N|N|
CT_66  |N|N|-|N|-|-|-| |-|E|D|-|L|L|L| |L|-|D|E|-|N|N| |-|-|E|N|-|-|-|
CT_67  |-|E|N|-|-|-|-| |-|-|-|-|D|-|-| |-|-|-|L|-|N|-| |-|-|-|-|L|-|-|
CT_68  |D|E|-|-|-|N|N| |-|-|-|-|-|-|-| |E|D|D|-|E|-|-| |N|-|E|L|-|-|-|
CT_69  |-|E|-|-|N|-|-| |L|-|E|L|-|-|-| |-|N|-|D|D|-|-| |L|L|L|-|-|-|-|
CT_70  |D|N|N|-|N|-|-| |N|N|-|E|E|-|-| |N|-|N|-|E|L|N| |-|-|E|D|-|-|-|
CT_71  |-|-|-|-|D|-|-| |-|L|-|-|-|-|-| |-|E|-|-|-|-|-| |L|N|-|-|-|-|-|
CT_72  |-|-|-|-|D|-|-| |-|-|E|-|-|-|-| |E|-|-|-|-|L|L| |-|N|-|-|-|-|-|
CT_73  |-|-|-|-|L|-|-| |E|N|-|-|-|-|E| |-|-|-|-|-|-|-| |-|-|N|-|-|-|-|
CT_74  |-|-|L|-|-|-|-| |-|-|N|-|-|-|-| |-|-|-|E|-|-|-| |-|N|-|L|-|-|-|
CT_75  |N|-|D|E|-|-|-| |E|N|N|-|N|-|-| |-|-|D|D|E|E|D| |-|-|D|E|D|-|-|
CT_76  |N|N|N|-|D|E|D| |E|D|E|D|D|-|-| |L|L|N|N|N|-|-| |N|-|E|D|E|D|L|
CT_77  |D|-|D|D|D|-|-| |E|E|D|E|-|N|N| |N|N|N|N|N|-|-| |E|D|E|D|E|D|E|
CT_78  |L|N|N|N|-|E|L| |N|-|E|E|L|-|-| |D|D|E|E|E|-|-| |D|E|N|N|N|N|N|
CT_79  |E|N|-|-|E|-|-| |-|-|-|-|-|-|-| |E|N|-|-|-|D|E| |-|-|-|-|-|-|-|
TR_80  |-|E|E|N|-|-|-| |-|-|N|-|E|E|E| |E|-|-|E|L|-|-| |L|L|N|-|-|N|N|
TR_81  |L|-|N|-|-|-|-| |D|N|-|E|D|-|-| |-|-|-|E|-|N|N| |-|N|-|N|-|-|-|
TR_82  |E|D|-|-|-|-|-| |E|-|-|-|E|-|-| |D|-|-|E|E|D|L| |-|L|-|N|-|-|-|
TR_83  |-|-|D|D|D|-|-| |N|-|L|L|N|-|-| |-|N|-|E|-|-|-| |E|E|L|N|-|D|E|
TR_84  |D|L|N|-|E|E|L| |L|L|-|-|D|-|-| |-|-|E|-|D|-|-| |-|D|L|-|L|-|-|
TR_85  |N|N|-|-|-|-|-| |-|L|-|-|-|-|-| |-|-|D|-|-|-|-| |-|-|N|-|-|-|-|
TR_86  |-|-|-|L|-|L|L| |-|E|-|-|D|-|-| |E|-|N|N|-|-|-| |E|-|N|-|E|-|-|
TR_87  |-|-|N|-|N|-|-| |D|N|N|-|E|-|-| |D|-|N|N|-|E|E| |-|E|-|D|-|L|L|
TR_88  |-|E|E|D|D|-|-| |N|-|E|E|-|-|-| |-|D|L|L|L|-|-| |N|-|-|L|-|D|D|
TR_89  |E|D|D|E|E|E|E| |E|D|D|-|L|-|-| |N|N|N|N|N|N|N| |-|E|L|L|N|-|-|
TR_90  |N|N|-|N|-|-|-| |-|N|-|L|L|-|-| |N|N|-|N|-|-|-| |-|-|N|-|D|-|-|
TR_91  |L|L|N|N|N|-|-| |N|N|-|-|D|-|-| |E|D|D|D|E|E|E| |D|D|D|D|E|D|L|
TR_92  |-|-|-|E|-|-|-| |-|E|L|-|-|-|-| |-|-|-|-|-|-|-| |N|-|-|E|-|-|-|
TR_93  |-|-|-|D|E|-|-| |-|E|-|-|E|-|-| |-|E|D|-|-|-|-| |N|-|L|-|D|E|E|
TR_94  |-|D|E|-|-|-|-| |L|-|E|-|-|-|-| |N|-|L|L|-|-|-| |D|-|D|E|L|-|-|
TR_95  |-|L|-|-|L|-|-| |-|-|-|-|-|-|-| |-|L|N|-|-|-|-| |-|-|-|E|-|-|-|
TR_96  |E|L|-|L|-|D|E| |-|D|D|E|-|-|-| |L|-|E|E|N|-|-| |E|-|-|L|N|-|-|
TR_97  |N|N|-|E|D|D|D| |D|D|D|D|D|D|E| |D|E|L|L|L|-|-| |E|L|L|L|-|-|-|
TR_98  |L|-|E|N|-|D|N| |-|-|E|E|E|E|N| |-|-|-|D|L|-|-| |D|-|E|-|D|-|-|
TR_99  |L|-|L|-|D|-|-| |N|N|-|D|E|N|N| |-|E|N|-|N|-|-| |E|L|-|N|-|-|-|
TR_100 |E|E|E|L|-|-|-| |E|E|E|D|L|L|L| |L|L|L|-|E|-|-| |D|E|D|D|E|E|E|
TR_101 |D|E|D|D|D|L|L| |-|L|N|N|N|-|-| |E|E|E|D|D|D|D| |L|-|E|L|L|-|-|
TR_102 |D|N|-|-|N|-|-| |-|L|-|-|-|-|-| |-|-|-|-|-|-|-| |-|N|-|-|-|-|-|
TR_103 |-|-|L|-|L|-|-| |L|-|-|E|L|-|-| |N|-|-|D|E|-|-| |-|L|-|L|N|-|-|
TR_104 |D|D|E|E|E|N|N| |N|N|N|N|-|D|D| |E|D|E|E|D|-|-| |N|-|E|E|N|-|-|
TR_105 |N|-|-|-|E|-|-| |E|D|D|L|N|-|-| |D|L|-|L|-|L|L| |N|N|-|E|-|-|-|
TR_106 |E|E|L|L|N|-|-| |D|D|L|L|L|L|L| |N|N|-|D|D|D|E| |-|D|E|D|E|-|-|
TR_107 |D|-|D|-|-|L|N| |-|-|D|-|-|D|D| |-|D|E|L|N|-|-| |L|-|E|D|D|-|-|
TR_108 |-|-|-|-|-|-|-| |-|-|-|N|N|-|-| |-|L|-|-|-|-|-| |-|N|N|-|-|-|-|
TR_109 |-|N|-|E|L|-|-| |L|-|-|D|N|-|-| |L|L|L|L|-|-|-| |-|D|-|E|L|N|N|


Hard constraint violations
--------------------------

Minimal coverage constraints: 0
Required skill constraints: 0
Illegal shift type succession constraints: 0
Single assignment per day: 0


Cost per constraint type
------------------------

Total assignment constraints: 660
Consecutive constraints: 49050
Non working days constraints: 18960
Preferences: 10
Max working weekend: 0
Complete weekends: 0
Optimal coverage constraints: 0

------------------------

Total cost: 68680
